nK = 726;
nT = 4;
nI = 7;
L = 35;
TT = 226;
np = 1;
nc = 3;
b = [59, 56, 62, 33, 45, 57, 38];
d = [145, 147, 105, 63, 147, 137, 136];
m = [1.3, 1, 1.2, 1, 1.4, 1.2, 2.4];
pt = [0.32, 0.29, 0.31, 0.32];
st = [18.24, 15.37, 17.36, 14.4];
arc = {<1, 0, 1, 1, 0, 0, 0, [1, 1, 1, 1]>, <2, 1, 2, 1, 0, 0, 0, [1, 1, 1, 1]>, <3, 2, 3, 1, 0, 0, 0, [1, 1, 1, 1]>, <4, 3, 4, 1, 0, 0, 0, [1, 1, 1, 1]>, <5, 4, 5, 1, 0, 0, 0, [1, 1, 1, 1]>, <6, 5, 6, 1, 0, 0, 0, [1, 1, 1, 1]>, <7, 6, 7, 1, 0, 0, 0, [1, 1, 1, 1]>, <8, 7, 8, 1, 0, 0, 0, [1, 1, 1, 1]>, <9, 8, 9, 1, 0, 0, 0, [1, 1, 1, 1]>, <10, 9, 10, 1, 0, 0, 0, [1, 1, 1, 1]>, <11, 10, 11, 1, 0, 0, 0, [1, 1, 1, 1]>, <12, 11, 12, 1, 0, 0, 0, [1, 1, 1, 1]>, <13, 12, 13, 1, 0, 0, 0, [1, 1, 1, 1]>, <14, 13, 14, 1, 0, 0, 0, [1, 1, 1, 1]>, <15, 14, 15, 1, 0, 0, 0, [1, 1, 1, 1]>, <16, 15, 16, 1, 0, 0, 0, [1, 1, 1, 1]>, <17, 16, 17, 1, 0, 0, 0, [1, 1, 1, 1]>, <18, 17, 18, 1, 0, 0, 0, [1, 1, 1, 1]>, <19, 18, 19, 1, 0, 0, 0, [1, 1, 1, 1]>, <20, 19, 20, 1, 0, 0, 0, [1, 1, 1, 1]>, <21, 20, 21, 1, 0, 0, 0, [1, 1, 1, 1]>, <22, 21, 22, 1, 0, 0, 0, [1, 1, 1, 1]>, <23, 22, 23, 1, 0, 0, 0, [1, 1, 1, 1]>, <24, 23, 24, 1, 0, 0, 0, [1, 1, 1, 1]>, <25, 24, 25, 1, 0, 0, 0, [1, 1, 1, 1]>, <26, 25, 26, 1, 0, 0, 0, [1, 1, 1, 1]>, <27, 26, 27, 1, 0, 0, 0, [1, 1, 1, 1]>, <28, 27, 28, 1, 0, 0, 0, [1, 1, 1, 1]>, <29, 28, 29, 1, 0, 0, 0, [1, 1, 1, 1]>, <30, 29, 30, 1, 0, 0, 0, [1, 1, 1, 1]>, <31, 30, 31, 1, 0, 0, 0, [1, 1, 1, 1]>, <32, 31, 32, 1, 0, 0, 0, [1, 1, 1, 1]>, <33, 32, 33, 1, 0, 0, 0, [1, 1, 1, 1]>, <34, 33, 34, 1, 0, 0, 0, [1, 1, 1, 1]>, <35, 34, 35, 1, 0, 0, 0, [1, 1, 1, 1]>, <36, 0, 21, 21, 1, 0, 0, [1, 0, 0, 1]>, <37, 1, 22, 21, 1, 0, 0, [1, 0, 0, 1]>, <38, 2, 23, 21, 1, 0, 0, [1, 0, 0, 1]>, <39, 3, 24, 21, 1, 0, 0, [1, 0, 0, 1]>, <40, 4, 25, 21, 1, 0, 0, [1, 0, 0, 1]>, <41, 5, 26, 21, 1, 0, 0, [1, 0, 0, 1]>, <42, 6, 27, 21, 1, 0, 0, [1, 0, 0, 1]>, <43, 7, 28, 21, 1, 0, 0, [1, 0, 0, 1]>, <44, 8, 29, 21, 1, 0, 0, [1, 0, 0, 1]>, <45, 9, 30, 21, 1, 0, 0, [1, 0, 0, 1]>, <46, 10, 31, 21, 1, 0, 0, [1, 0, 0, 1]>, <47, 11, 32, 21, 1, 0, 0, [1, 0, 0, 1]>, <48, 12, 33, 21, 1, 0, 0, [1, 0, 0, 1]>, <49, 13, 34, 21, 1, 0, 0, [1, 0, 0, 1]>, <50, 14, 35, 21, 1, 0, 0, [1, 0, 0, 1]>, <51, 0, 18, 18, 2, 0, 1, [1, 1, 0, 0]>, <52, 1, 19, 18, 2, 0, 1, [1, 1, 0, 0]>, <53, 2, 20, 18, 2, 0, 1, [1, 1, 0, 0]>, <54, 3, 21, 18, 2, 0, 1, [1, 1, 0, 0]>, <55, 4, 22, 18, 2, 0, 1, [1, 1, 0, 0]>, <56, 5, 23, 18, 2, 0, 1, [1, 1, 0, 0]>, <57, 6, 24, 18, 2, 0, 1, [1, 1, 0, 0]>, <58, 8, 26, 18, 2, 0, 1, [1, 1, 0, 0]>, <59, 9, 27, 18, 2, 0, 1, [1, 1, 0, 0]>, <60, 10, 28, 18, 2, 0, 1, [1, 1, 0, 0]>, <61, 11, 29, 18, 2, 0, 1, [1, 1, 0, 0]>, <62, 12, 30, 18, 2, 0, 1, [1, 1, 0, 0]>, <63, 13, 31, 18, 2, 0, 1, [1, 1, 0, 0]>, <64, 14, 32, 18, 2, 0, 1, [1, 1, 0, 0]>, <65, 15, 33, 18, 2, 0, 1, [1, 1, 0, 0]>, <66, 16, 34, 18, 2, 0, 1, [1, 1, 0, 0]>, <67, 17, 35, 18, 2, 0, 1, [1, 1, 0, 0]>, <68, 1, 17, 16, 3, 0, 0, [0, 1, 1, 0]>, <69, 2, 18, 16, 3, 0, 0, [0, 1, 1, 0]>, <70, 3, 19, 16, 3, 0, 0, [0, 1, 1, 0]>, <71, 4, 20, 16, 3, 0, 0, [0, 1, 1, 0]>, <72, 5, 21, 16, 3, 0, 0, [0, 1, 1, 0]>, <73, 6, 22, 16, 3, 0, 0, [0, 1, 1, 0]>, <74, 10, 26, 16, 3, 0, 0, [0, 1, 1, 0]>, <75, 11, 27, 16, 3, 0, 0, [0, 1, 1, 0]>, <76, 12, 28, 16, 3, 0, 0, [0, 1, 1, 0]>, <77, 13, 29, 16, 3, 0, 0, [0, 1, 1, 0]>, <78, 14, 30, 16, 3, 0, 0, [0, 1, 1, 0]>, <79, 15, 31, 16, 3, 0, 0, [0, 1, 1, 0]>, <80, 16, 32, 16, 3, 0, 0, [0, 1, 1, 0]>, <81, 17, 33, 16, 3, 0, 0, [0, 1, 1, 0]>, <82, 18, 34, 16, 3, 0, 0, [0, 1, 1, 0]>, <83, 19, 35, 16, 3, 0, 0, [0, 1, 1, 0]>, <84, 1, 17, 16, 4, 0, 0, [0, 0, 1, 1]>, <85, 2, 18, 16, 4, 0, 0, [0, 0, 1, 1]>, <86, 3, 19, 16, 4, 0, 0, [0, 0, 1, 1]>, <87, 4, 20, 16, 4, 0, 0, [0, 0, 1, 1]>, <88, 5, 21, 16, 4, 0, 0, [0, 0, 1, 1]>, <89, 6, 22, 16, 4, 0, 0, [0, 0, 1, 1]>, <90, 10, 26, 16, 4, 0, 0, [0, 0, 1, 1]>, <91, 11, 27, 16, 4, 0, 0, [0, 0, 1, 1]>, <92, 12, 28, 16, 4, 0, 0, [0, 0, 1, 1]>, <93, 13, 29, 16, 4, 0, 0, [0, 0, 1, 1]>, <94, 14, 30, 16, 4, 0, 0, [0, 0, 1, 1]>, <95, 15, 31, 16, 4, 0, 0, [0, 0, 1, 1]>, <96, 16, 32, 16, 4, 0, 0, [0, 0, 1, 1]>, <97, 17, 33, 16, 4, 0, 0, [0, 0, 1, 1]>, <98, 18, 34, 16, 4, 0, 0, [0, 0, 1, 1]>, <99, 19, 35, 16, 4, 0, 0, [0, 0, 1, 1]>, <100, 0, 18, 18, 5, 0, 0, [1, 1, 0, 0]>, <101, 1, 19, 18, 5, 0, 0, [1, 1, 0, 0]>, <102, 2, 20, 18, 5, 0, 0, [1, 1, 0, 0]>, <103, 3, 21, 18, 5, 0, 0, [1, 1, 0, 0]>, <104, 4, 22, 18, 5, 0, 0, [1, 1, 0, 0]>, <105, 5, 23, 18, 5, 0, 0, [1, 1, 0, 0]>, <106, 6, 24, 18, 5, 0, 0, [1, 1, 0, 0]>, <107, 8, 26, 18, 5, 0, 0, [1, 1, 0, 0]>, <108, 9, 27, 18, 5, 0, 0, [1, 1, 0, 0]>, <109, 10, 28, 18, 5, 0, 0, [1, 1, 0, 0]>, <110, 11, 29, 18, 5, 0, 0, [1, 1, 0, 0]>, <111, 12, 30, 18, 5, 0, 0, [1, 1, 0, 0]>, <112, 13, 31, 18, 5, 0, 0, [1, 1, 0, 0]>, <113, 14, 32, 18, 5, 0, 0, [1, 1, 0, 0]>, <114, 15, 33, 18, 5, 0, 0, [1, 1, 0, 0]>, <115, 16, 34, 18, 5, 0, 0, [1, 1, 0, 0]>, <116, 17, 35, 18, 5, 0, 0, [1, 1, 0, 0]>, <117, 0, 17, 17, 6, 1, 0, [0, 0, 1, 1]>, <118, 1, 18, 17, 6, 1, 0, [0, 0, 1, 1]>, <119, 2, 19, 17, 6, 1, 0, [0, 0, 1, 1]>, <120, 3, 20, 17, 6, 1, 0, [0, 0, 1, 1]>, <121, 4, 21, 17, 6, 1, 0, [0, 0, 1, 1]>, <122, 5, 22, 17, 6, 1, 0, [0, 0, 1, 1]>, <123, 6, 23, 17, 6, 1, 0, [0, 0, 1, 1]>, <124, 9, 26, 17, 6, 1, 0, [0, 0, 1, 1]>, <125, 10, 27, 17, 6, 1, 0, [0, 0, 1, 1]>, <126, 11, 28, 17, 6, 1, 0, [0, 0, 1, 1]>, <127, 12, 29, 17, 6, 1, 0, [0, 0, 1, 1]>, <128, 13, 30, 17, 6, 1, 0, [0, 0, 1, 1]>, <129, 14, 31, 17, 6, 1, 0, [0, 0, 1, 1]>, <130, 15, 32, 17, 6, 1, 0, [0, 0, 1, 1]>, <131, 16, 33, 17, 6, 1, 0, [0, 0, 1, 1]>, <132, 17, 34, 17, 6, 1, 0, [0, 0, 1, 1]>, <133, 18, 35, 17, 6, 1, 0, [0, 0, 1, 1]>, <134, 0, 21, 21, 7, 0, 1, [0, 0, 1, 1]>, <135, 1, 22, 21, 7, 0, 1, [0, 0, 1, 1]>, <136, 2, 23, 21, 7, 0, 1, [0, 0, 1, 1]>, <137, 3, 24, 21, 7, 0, 1, [0, 0, 1, 1]>, <138, 4, 25, 21, 7, 0, 1, [0, 0, 1, 1]>, <139, 5, 26, 21, 7, 0, 1, [0, 0, 1, 1]>, <140, 6, 27, 21, 7, 0, 1, [0, 0, 1, 1]>, <141, 7, 28, 21, 7, 0, 1, [0, 0, 1, 1]>, <142, 8, 29, 21, 7, 0, 1, [0, 0, 1, 1]>, <143, 9, 30, 21, 7, 0, 1, [0, 0, 1, 1]>, <144, 10, 31, 21, 7, 0, 1, [0, 0, 1, 1]>, <145, 11, 32, 21, 7, 0, 1, [0, 0, 1, 1]>, <146, 12, 33, 21, 7, 0, 1, [0, 0, 1, 1]>, <147, 13, 34, 21, 7, 0, 1, [0, 0, 1, 1]>, <148, 14, 35, 21, 7, 0, 1, [0, 0, 1, 1]>};
